3 3 2
25 0 34 2 81 0 16 1 36 2 17 0 22 2 44 1 5 2 2 1 38 0 69 1 24 0 32 1 92 2 11 0 81 2 70 0 58 1 57 0 2 2 78 1 38 0 23 1 88 2 59 
25 0 41 1 87 2 51 0 32 2 57 1 46 0 70 1 98 2 68 1 77 0 0 2 29 1 0 2 44 0 41 1 87 2 82 1 46 2 84 0 1 2 18 1 69 2 55 0 70 1 85 
25 0 48 2 71 1 19 2 99 0 78 2 86 0 17 2 36 0 50 2 52 0 28 1 3 0 34 1 91 0 94 2 37 0 23 2 74 0 42 1 12 2 20 1 62 0 18 1 21 0 50 

-------------
